; sanic :: corpus-study/repo_src/sanic/sanic/server/websockets/frame.py :: QUEUE 'WebsocketFrameAssembler.chunks_queue' :: naive encoding (verdict: unsat)
; Generated by snf-pipeline (encoder.py) -- run with any
; SMT-LIB2-compliant solver, e.g. `z3 sanic__corpus-study_repo_src_sanic_sanic_server_websockets_frame.py__WebsocketFrameAssembler.chunks_queue__naive.smt2`
; benchmark generated from python API
(set-info :status unknown)
(declare-fun conn_0 () Int)
(assert
 (>= conn_0 1))
(assert
 (<= conn_0 2))
(assert
 false)
(check-sat)
